NAME : L71
COMMENT : 34330.84
TYPE : CVRP
DIMENSION : 1121
MAXVEHICLES : 7
EDGE_WEIGHT_TYPE : EUC_2D
CAPACITY : 1000
DISTANCE : 2000
SERVICE_TIME : 10
TOTALPROFITS : 22462
NODE_COORD_SECTION
1 0.0000 0.0000
2 30.0000 0.0000
3 29.6307 4.6930
4 28.5317 9.2705
5 26.7302 13.6197
6 24.2705 17.6336
7 21.2132 21.2132
8 17.6336 24.2705
9 13.6197 26.7302
10 9.2705 28.5317
11 4.6930 29.6307
12 0.0000 30.0000
13 -4.6930 29.6307
14 -9.2705 28.5317
15 -13.6197 26.7302
16 -17.6336 24.2705
17 -21.2132 21.2132
18 -24.2705 17.6336
19 -26.7302 13.6197
20 -28.5317 9.2705
21 -29.6307 4.6930
22 -30.0000 0.0000
23 -29.6307 -4.6930
24 -28.5317 -9.2705
25 -26.7302 -13.6197
26 -24.2705 -17.6336
27 -21.2132 -21.2132
28 -17.6336 -24.2705
29 -13.6197 -26.7302
30 -9.2705 -28.5317
31 -4.6930 -29.6307
32 -0.0000 -30.0000
33 4.6930 -29.6307
34 9.2705 -28.5317
35 13.6197 -26.7302
36 17.6336 -24.2705
37 21.2132 -21.2132
38 24.2705 -17.6336
39 26.7302 -13.6197
40 28.5317 -9.2705
41 29.6307 -4.6930
42 60.0000 0.0000
43 59.2613 9.3861
44 57.0634 18.5410
45 53.4604 27.2394
46 48.5410 35.2671
47 42.4264 42.4264
48 35.2671 48.5410
49 27.2394 53.4604
50 18.5410 57.0634
51 9.3861 59.2613
52 0.0000 60.0000
53 -9.3861 59.2613
54 -18.5410 57.0634
55 -27.2394 53.4604
56 -35.2671 48.5410
57 -42.4264 42.4264
58 -48.5410 35.2671
59 -53.4604 27.2394
60 -57.0634 18.5410
61 -59.2613 9.3861
62 -60.0000 0.0000
63 -59.2613 -9.3861
64 -57.0634 -18.5410
65 -53.4604 -27.2394
66 -48.5410 -35.2671
67 -42.4264 -42.4264
68 -35.2671 -48.5410
69 -27.2394 -53.4604
70 -18.5410 -57.0634
71 -9.3861 -59.2613
72 -0.0000 -60.0000
73 9.3861 -59.2613
74 18.5410 -57.0634
75 27.2394 -53.4604
76 35.2671 -48.5410
77 42.4264 -42.4264
78 48.5410 -35.2671
79 53.4604 -27.2394
80 57.0634 -18.5410
81 59.2613 -9.3861
82 90.0000 0.0000
83 88.8920 14.0791
84 85.5951 27.8115
85 80.1906 40.8591
86 72.8115 52.9007
87 63.6396 63.6396
88 52.9007 72.8115
89 40.8591 80.1906
90 27.8115 85.5951
91 14.0791 88.8920
92 0.0000 90.0000
93 -14.0791 88.8920
94 -27.8115 85.5951
95 -40.8591 80.1906
96 -52.9007 72.8115
97 -63.6396 63.6396
98 -72.8115 52.9007
99 -80.1906 40.8591
100 -85.5951 27.8115
101 -88.8920 14.0791
102 -90.0000 0.0000
103 -88.8920 -14.0791
104 -85.5951 -27.8115
105 -80.1906 -40.8591
106 -72.8115 -52.9007
107 -63.6396 -63.6396
108 -52.9007 -72.8115
109 -40.8591 -80.1906
110 -27.8115 -85.5951
111 -14.0791 -88.8920
112 -0.0000 -90.0000
113 14.0791 -88.8920
114 27.8115 -85.5951
115 40.8591 -80.1906
116 52.9007 -72.8115
117 63.6396 -63.6396
118 72.8115 -52.9007
119 80.1906 -40.8591
120 85.5951 -27.8115
121 88.8920 -14.0791
122 120.0000 0.0000
123 118.5226 18.7721
124 114.1268 37.0820
125 106.9208 54.4789
126 97.0820 70.5342
127 84.8528 84.8528
128 70.5342 97.0820
129 54.4789 106.9208
130 37.0820 114.1268
131 18.7721 118.5226
132 0.0000 120.0000
133 -18.7721 118.5226
134 -37.0820 114.1268
135 -54.4789 106.9208
136 -70.5342 97.0820
137 -84.8528 84.8528
138 -97.0820 70.5342
139 -106.9208 54.4789
140 -114.1268 37.0820
141 -118.5226 18.7721
142 -120.0000 0.0000
143 -118.5226 -18.7721
144 -114.1268 -37.0820
145 -106.9208 -54.4789
146 -97.0820 -70.5342
147 -84.8528 -84.8528
148 -70.5342 -97.0820
149 -54.4789 -106.9208
150 -37.0820 -114.1268
151 -18.7721 -118.5226
152 -0.0000 -120.0000
153 18.7721 -118.5226
154 37.0820 -114.1268
155 54.4789 -106.9208
156 70.5342 -97.0820
157 84.8528 -84.8528
158 97.0820 -70.5342
159 106.9208 -54.4789
160 114.1268 -37.0820
161 118.5226 -18.7721
162 150.0000 0.0000
163 148.1533 23.4652
164 142.6585 46.3525
165 133.6510 68.0986
166 121.3525 88.1678
167 106.0660 106.0660
168 88.1678 121.3525
169 68.0986 133.6510
170 46.3525 142.6585
171 23.4652 148.1533
172 0.0000 150.0000
173 -23.4652 148.1533
174 -46.3525 142.6585
175 -68.0986 133.6510
176 -88.1678 121.3525
177 -106.0660 106.0660
178 -121.3525 88.1678
179 -133.6510 68.0986
180 -142.6585 46.3525
181 -148.1533 23.4652
182 -150.0000 0.0000
183 -148.1533 -23.4652
184 -142.6585 -46.3525
185 -133.6510 -68.0986
186 -121.3525 -88.1678
187 -106.0660 -106.0660
188 -88.1678 -121.3525
189 -68.0986 -133.6510
190 -46.3525 -142.6585
191 -23.4652 -148.1533
192 -0.0000 -150.0000
193 23.4652 -148.1533
194 46.3525 -142.6585
195 68.0986 -133.6510
196 88.1678 -121.3525
197 106.0660 -106.0660
198 121.3525 -88.1678
199 133.6510 -68.0986
200 142.6585 -46.3525
201 148.1533 -23.4652
202 180.0000 0.0000
203 177.7839 28.1582
204 171.1902 55.6231
205 160.3812 81.7183
206 145.6231 105.8013
207 127.2792 127.2792
208 105.8013 145.6231
209 81.7183 160.3812
210 55.6231 171.1902
211 28.1582 177.7839
212 0.0000 180.0000
213 -28.1582 177.7839
214 -55.6231 171.1902
215 -81.7183 160.3812
216 -105.8013 145.6231
217 -127.2792 127.2792
218 -145.6231 105.8013
219 -160.3812 81.7183
220 -171.1902 55.6231
221 -177.7839 28.1582
222 -180.0000 0.0000
223 -177.7839 -28.1582
224 -171.1902 -55.6231
225 -160.3812 -81.7183
226 -145.6231 -105.8013
227 -127.2792 -127.2792
228 -105.8013 -145.6231
229 -81.7183 -160.3812
230 -55.6231 -171.1902
231 -28.1582 -177.7839
232 -0.0000 -180.0000
233 28.1582 -177.7839
234 55.6231 -171.1902
235 81.7183 -160.3812
236 105.8013 -145.6231
237 127.2792 -127.2792
238 145.6231 -105.8013
239 160.3812 -81.7183
240 171.1902 -55.6231
241 177.7839 -28.1582
242 210.0000 0.0000
243 207.4146 32.8512
244 199.7219 64.8936
245 187.1114 95.3380
246 169.8936 123.4349
247 148.4924 148.4924
248 123.4349 169.8936
249 95.3380 187.1114
250 64.8936 199.7219
251 32.8512 207.4146
252 0.0000 210.0000
253 -32.8512 207.4146
254 -64.8936 199.7219
255 -95.3380 187.1114
256 -123.4349 169.8936
257 -148.4924 148.4924
258 -169.8936 123.4349
259 -187.1114 95.3380
260 -199.7219 64.8936
261 -207.4146 32.8512
262 -210.0000 0.0000
263 -207.4146 -32.8512
264 -199.7219 -64.8936
265 -187.1114 -95.3380
266 -169.8936 -123.4349
267 -148.4924 -148.4924
268 -123.4349 -169.8936
269 -95.3380 -187.1114
270 -64.8936 -199.7219
271 -32.8512 -207.4146
272 -0.0000 -210.0000
273 32.8512 -207.4146
274 64.8936 -199.7219
275 95.3380 -187.1114
276 123.4349 -169.8936
277 148.4924 -148.4924
278 169.8936 -123.4349
279 187.1114 -95.3380
280 199.7219 -64.8936
281 207.4146 -32.8512
282 240.0000 0.0000
283 237.0452 37.5443
284 228.2536 74.1641
285 213.8416 108.9577
286 194.1641 141.0685
287 169.7056 169.7056
288 141.0685 194.1641
289 108.9577 213.8416
290 74.1641 228.2536
291 37.5443 237.0452
292 0.0000 240.0000
293 -37.5443 237.0452
294 -74.1641 228.2536
295 -108.9577 213.8416
296 -141.0685 194.1641
297 -169.7056 169.7056
298 -194.1641 141.0685
299 -213.8416 108.9577
300 -228.2536 74.1641
301 -237.0452 37.5443
302 -240.0000 0.0000
303 -237.0452 -37.5443
304 -228.2536 -74.1641
305 -213.8416 -108.9577
306 -194.1641 -141.0685
307 -169.7056 -169.7056
308 -141.0685 -194.1641
309 -108.9577 -213.8416
310 -74.1641 -228.2536
311 -37.5443 -237.0452
312 -0.0000 -240.0000
313 37.5443 -237.0452
314 74.1641 -228.2536
315 108.9577 -213.8416
316 141.0685 -194.1641
317 169.7056 -169.7056
318 194.1641 -141.0685
319 213.8416 -108.9577
320 228.2536 -74.1641
321 237.0452 -37.5443
322 270.0000 0.0000
323 266.6759 42.2373
324 256.7853 83.4346
325 240.5718 122.5774
326 218.4346 158.7020
327 190.9188 190.9188
328 158.7020 218.4346
329 122.5774 240.5718
330 83.4346 256.7853
331 42.2373 266.6759
332 0.0000 270.0000
333 -42.2373 266.6759
334 -83.4346 256.7853
335 -122.5774 240.5718
336 -158.7020 218.4346
337 -190.9188 190.9188
338 -218.4346 158.7020
339 -240.5718 122.5774
340 -256.7853 83.4346
341 -266.6759 42.2373
342 -270.0000 0.0000
343 -266.6759 -42.2373
344 -256.7853 -83.4346
345 -240.5718 -122.5774
346 -218.4346 -158.7020
347 -190.9188 -190.9188
348 -158.7020 -218.4346
349 -122.5774 -240.5718
350 -83.4346 -256.7853
351 -42.2373 -266.6759
352 -0.0000 -270.0000
353 42.2373 -266.6759
354 83.4346 -256.7853
355 122.5774 -240.5718
356 158.7020 -218.4346
357 190.9188 -190.9188
358 218.4346 -158.7020
359 240.5718 -122.5774
360 256.7853 -83.4346
361 266.6759 -42.2373
362 300.0000 0.0000
363 296.3065 46.9303
364 285.3170 92.7051
365 267.3020 136.1971
366 242.7051 176.3356
367 212.1320 212.1320
368 176.3356 242.7051
369 136.1971 267.3020
370 92.7051 285.3170
371 46.9303 296.3065
372 0.0000 300.0000
373 -46.9303 296.3065
374 -92.7051 285.3170
375 -136.1971 267.3020
376 -176.3356 242.7051
377 -212.1320 212.1320
378 -242.7051 176.3356
379 -267.3020 136.1971
380 -285.3170 92.7051
381 -296.3065 46.9303
382 -300.0000 0.0000
383 -296.3065 -46.9303
384 -285.3170 -92.7051
385 -267.3020 -136.1971
386 -242.7051 -176.3356
387 -212.1320 -212.1320
388 -176.3356 -242.7051
389 -136.1971 -267.3020
390 -92.7051 -285.3170
391 -46.9303 -296.3065
392 -0.0000 -300.0000
393 46.9303 -296.3065
394 92.7051 -285.3170
395 136.1971 -267.3020
396 176.3356 -242.7051
397 212.1320 -212.1320
398 242.7051 -176.3356
399 267.3020 -136.1971
400 285.3170 -92.7051
401 296.3065 -46.9303
402 330.0000 0.0000
403 325.9372 51.6234
404 313.8487 101.9756
405 294.0322 149.8169
406 266.9756 193.9691
407 233.3452 233.3452
408 193.9691 266.9756
409 149.8169 294.0322
410 101.9756 313.8487
411 51.6234 325.9372
412 0.0000 330.0000
413 -51.6234 325.9372
414 -101.9756 313.8487
415 -149.8169 294.0322
416 -193.9691 266.9756
417 -233.3452 233.3452
418 -266.9756 193.9691
419 -294.0322 149.8169
420 -313.8487 101.9756
421 -325.9372 51.6234
422 -330.0000 0.0000
423 -325.9372 -51.6234
424 -313.8487 -101.9756
425 -294.0322 -149.8169
426 -266.9756 -193.9691
427 -233.3452 -233.3452
428 -193.9691 -266.9756
429 -149.8169 -294.0322
430 -101.9756 -313.8487
431 -51.6234 -325.9372
432 -0.0000 -330.0000
433 51.6234 -325.9372
434 101.9756 -313.8487
435 149.8169 -294.0322
436 193.9691 -266.9756
437 233.3452 -233.3452
438 266.9756 -193.9691
439 294.0322 -149.8169
440 313.8487 -101.9756
441 325.9372 -51.6234
442 360.0000 0.0000
443 355.5678 56.3164
444 342.3803 111.2461
445 320.7623 163.4366
446 291.2461 211.6027
447 254.5584 254.5584
448 211.6027 291.2461
449 163.4366 320.7623
450 111.2461 342.3803
451 56.3164 355.5678
452 0.0000 360.0000
453 -56.3164 355.5678
454 -111.2461 342.3803
455 -163.4366 320.7623
456 -211.6027 291.2461
457 -254.5584 254.5584
458 -291.2461 211.6027
459 -320.7623 163.4366
460 -342.3803 111.2461
461 -355.5678 56.3164
462 -360.0000 0.0000
463 -355.5678 -56.3164
464 -342.3803 -111.2461
465 -320.7623 -163.4366
466 -291.2461 -211.6027
467 -254.5584 -254.5584
468 -211.6027 -291.2461
469 -163.4366 -320.7623
470 -111.2461 -342.3803
471 -56.3164 -355.5678
472 -0.0000 -360.0000
473 56.3164 -355.5678
474 111.2461 -342.3803
475 163.4366 -320.7623
476 211.6027 -291.2461
477 254.5584 -254.5584
478 291.2461 -211.6027
479 320.7623 -163.4366
480 342.3803 -111.2461
481 355.5678 -56.3164
482 390.0000 0.0000
483 385.1985 61.0094
484 370.9120 120.5166
485 347.4925 177.0563
486 315.5166 229.2362
487 275.7716 275.7716
488 229.2362 315.5166
489 177.0563 347.4925
490 120.5166 370.9120
491 61.0094 385.1985
492 0.0000 390.0000
493 -61.0094 385.1985
494 -120.5166 370.9120
495 -177.0563 347.4925
496 -229.2362 315.5166
497 -275.7716 275.7716
498 -315.5166 229.2362
499 -347.4925 177.0563
500 -370.9120 120.5166
501 -385.1985 61.0094
502 -390.0000 0.0000
503 -385.1985 -61.0094
504 -370.9120 -120.5166
505 -347.4925 -177.0563
506 -315.5166 -229.2362
507 -275.7716 -275.7716
508 -229.2362 -315.5166
509 -177.0563 -347.4925
510 -120.5166 -370.9120
511 -61.0094 -385.1985
512 -0.0000 -390.0000
513 61.0094 -385.1985
514 120.5166 -370.9120
515 177.0563 -347.4925
516 229.2362 -315.5166
517 275.7716 -275.7716
518 315.5166 -229.2362
519 347.4925 -177.0563
520 370.9120 -120.5166
521 385.1985 -61.0094
522 420.0000 0.0000
523 414.8291 65.7025
524 399.4437 129.7871
525 374.2227 190.6760
526 339.7871 246.8698
527 296.9848 296.9848
528 246.8698 339.7871
529 190.6760 374.2227
530 129.7871 399.4437
531 65.7025 414.8291
532 0.0000 420.0000
533 -65.7025 414.8291
534 -129.7871 399.4437
535 -190.6760 374.2227
536 -246.8698 339.7871
537 -296.9848 296.9848
538 -339.7871 246.8698
539 -374.2227 190.6760
540 -399.4437 129.7871
541 -414.8291 65.7025
542 -420.0000 0.0000
543 -414.8291 -65.7025
544 -399.4437 -129.7871
545 -374.2227 -190.6760
546 -339.7871 -246.8698
547 -296.9848 -296.9848
548 -246.8698 -339.7871
549 -190.6760 -374.2227
550 -129.7871 -399.4437
551 -65.7025 -414.8291
552 -0.0000 -420.0000
553 65.7025 -414.8291
554 129.7871 -399.4437
555 190.6760 -374.2227
556 246.8698 -339.7871
557 296.9848 -296.9848
558 339.7871 -246.8698
559 374.2227 -190.6760
560 399.4437 -129.7871
561 414.8291 -65.7025
562 450.0000 0.0000
563 444.4598 70.3955
564 427.9754 139.0576
565 400.9529 204.2957
566 364.0576 264.5034
567 318.1981 318.1981
568 264.5034 364.0576
569 204.2957 400.9529
570 139.0576 427.9754
571 70.3955 444.4598
572 0.0000 450.0000
573 -70.3955 444.4598
574 -139.0576 427.9754
575 -204.2957 400.9529
576 -264.5034 364.0576
577 -318.1981 318.1981
578 -364.0576 264.5034
579 -400.9529 204.2957
580 -427.9754 139.0576
581 -444.4598 70.3955
582 -450.0000 0.0000
583 -444.4598 -70.3955
584 -427.9754 -139.0576
585 -400.9529 -204.2957
586 -364.0576 -264.5034
587 -318.1981 -318.1981
588 -264.5034 -364.0576
589 -204.2957 -400.9529
590 -139.0576 -427.9754
591 -70.3955 -444.4598
592 -0.0000 -450.0000
593 70.3955 -444.4598
594 139.0576 -427.9754
595 204.2957 -400.9529
596 264.5034 -364.0576
597 318.1981 -318.1981
598 364.0576 -264.5034
599 400.9529 -204.2957
600 427.9754 -139.0576
601 444.4598 -70.3955
602 480.0000 0.0000
603 474.0904 75.0885
604 456.5071 148.3282
605 427.6831 217.9154
606 388.3282 282.1369
607 339.4113 339.4113
608 282.1369 388.3282
609 217.9154 427.6831
610 148.3282 456.5071
611 75.0885 474.0904
612 0.0000 480.0000
613 -75.0885 474.0904
614 -148.3282 456.5071
615 -217.9154 427.6831
616 -282.1369 388.3282
617 -339.4113 339.4113
618 -388.3282 282.1369
619 -427.6831 217.9154
620 -456.5071 148.3282
621 -474.0904 75.0885
622 -480.0000 0.0000
623 -474.0904 -75.0885
624 -456.5071 -148.3282
625 -427.6831 -217.9154
626 -388.3282 -282.1369
627 -339.4113 -339.4113
628 -282.1369 -388.3282
629 -217.9154 -427.6831
630 -148.3282 -456.5071
631 -75.0885 -474.0904
632 -0.0000 -480.0000
633 75.0885 -474.0904
634 148.3282 -456.5071
635 217.9154 -427.6831
636 282.1369 -388.3282
637 339.4113 -339.4113
638 388.3282 -282.1369
639 427.6831 -217.9154
640 456.5071 -148.3282
641 474.0904 -75.0885
642 510.0000 0.0000
643 503.7211 79.7816
644 485.0388 157.5987
645 454.4133 231.5352
646 412.5987 299.7705
647 360.6245 360.6245
648 299.7705 412.5987
649 231.5352 454.4133
650 157.5987 485.0388
651 79.7816 503.7211
652 0.0000 510.0000
653 -79.7816 503.7211
654 -157.5987 485.0388
655 -231.5352 454.4133
656 -299.7705 412.5987
657 -360.6245 360.6245
658 -412.5987 299.7705
659 -454.4133 231.5352
660 -485.0388 157.5987
661 -503.7211 79.7816
662 -510.0000 0.0000
663 -503.7211 -79.7816
664 -485.0388 -157.5987
665 -454.4133 -231.5352
666 -412.5987 -299.7705
667 -360.6245 -360.6245
668 -299.7705 -412.5987
669 -231.5352 -454.4133
670 -157.5987 -485.0388
671 -79.7816 -503.7211
672 -0.0000 -510.0000
673 79.7816 -503.7211
674 157.5987 -485.0388
675 231.5352 -454.4133
676 299.7705 -412.5987
677 360.6245 -360.6245
678 412.5987 -299.7705
679 454.4133 -231.5352
680 485.0388 -157.5987
681 503.7211 -79.7816
682 540.0000 0.0000
683 533.3517 84.4746
684 513.5705 166.8692
685 481.1435 245.1549
686 436.8692 317.4040
687 381.8377 381.8377
688 317.4040 436.8692
689 245.1549 481.1435
690 166.8692 513.5705
691 84.4746 533.3517
692 0.0000 540.0000
693 -84.4746 533.3517
694 -166.8692 513.5705
695 -245.1549 481.1435
696 -317.4040 436.8692
697 -381.8377 381.8377
698 -436.8692 317.4040
699 -481.1435 245.1549
700 -513.5705 166.8692
701 -533.3517 84.4746
702 -540.0000 0.0000
703 -533.3517 -84.4746
704 -513.5705 -166.8692
705 -481.1435 -245.1549
706 -436.8692 -317.4040
707 -381.8377 -381.8377
708 -317.4040 -436.8692
709 -245.1549 -481.1435
710 -166.8692 -513.5705
711 -84.4746 -533.3517
712 -0.0000 -540.0000
713 84.4746 -533.3517
714 166.8692 -513.5705
715 245.1549 -481.1435
716 317.4040 -436.8692
717 381.8377 -381.8377
718 436.8692 -317.4040
719 481.1435 -245.1549
720 513.5705 -166.8692
721 533.3517 -84.4746
722 570.0000 0.0000
723 562.9824 89.1676
724 542.1022 176.1397
725 507.8737 258.7746
726 461.1397 335.0376
727 403.0509 403.0509
728 335.0376 461.1397
729 258.7746 507.8737
730 176.1397 542.1022
731 89.1676 562.9824
732 0.0000 570.0000
733 -89.1676 562.9824
734 -176.1397 542.1022
735 -258.7746 507.8737
736 -335.0376 461.1397
737 -403.0509 403.0509
738 -461.1397 335.0376
739 -507.8737 258.7746
740 -542.1022 176.1397
741 -562.9824 89.1676
742 -570.0000 0.0000
743 -562.9824 -89.1676
744 -542.1022 -176.1397
745 -507.8737 -258.7746
746 -461.1397 -335.0376
747 -403.0509 -403.0509
748 -335.0376 -461.1397
749 -258.7746 -507.8737
750 -176.1397 -542.1022
751 -89.1676 -562.9824
752 -0.0000 -570.0000
753 89.1676 -562.9824
754 176.1397 -542.1022
755 258.7746 -507.8737
756 335.0376 -461.1397
757 403.0509 -403.0509
758 461.1397 -335.0376
759 507.8737 -258.7746
760 542.1022 -176.1397
761 562.9824 -89.1676
762 600.0000 0.0000
763 592.6130 93.8607
764 570.6339 185.4102
765 534.6039 272.3943
766 485.4102 352.6712
767 424.2641 424.2641
768 352.6712 485.4102
769 272.3943 534.6039
770 185.4102 570.6339
771 93.8607 592.6130
772 0.0000 600.0000
773 -93.8607 592.6130
774 -185.4102 570.6339
775 -272.3943 534.6039
776 -352.6712 485.4102
777 -424.2641 424.2641
778 -485.4102 352.6712
779 -534.6039 272.3943
780 -570.6339 185.4102
781 -592.6130 93.8607
782 -600.0000 0.0000
783 -592.6130 -93.8607
784 -570.6339 -185.4102
785 -534.6039 -272.3943
786 -485.4102 -352.6712
787 -424.2641 -424.2641
788 -352.6712 -485.4102
789 -272.3943 -534.6039
790 -185.4102 -570.6339
791 -93.8607 -592.6130
792 -0.0000 -600.0000
793 93.8607 -592.6130
794 185.4102 -570.6339
795 272.3943 -534.6039
796 352.6712 -485.4102
797 424.2641 -424.2641
798 485.4102 -352.6712
799 534.6039 -272.3943
800 570.6339 -185.4102
801 592.6130 -93.8607
802 630.0000 0.0000
803 622.2437 98.5537
804 599.1656 194.6807
805 561.3341 286.0140
806 509.6807 370.3047
807 445.4773 445.4773
808 370.3047 509.6807
809 286.0140 561.3341
810 194.6807 599.1656
811 98.5537 622.2437
812 0.0000 630.0000
813 -98.5537 622.2437
814 -194.6807 599.1656
815 -286.0140 561.3341
816 -370.3047 509.6807
817 -445.4773 445.4773
818 -509.6807 370.3047
819 -561.3341 286.0140
820 -599.1656 194.6807
821 -622.2437 98.5537
822 -630.0000 0.0000
823 -622.2437 -98.5537
824 -599.1656 -194.6807
825 -561.3341 -286.0140
826 -509.6807 -370.3047
827 -445.4773 -445.4773
828 -370.3047 -509.6807
829 -286.0140 -561.3341
830 -194.6807 -599.1656
831 -98.5537 -622.2437
832 -0.0000 -630.0000
833 98.5537 -622.2437
834 194.6807 -599.1656
835 286.0140 -561.3341
836 370.3047 -509.6807
837 445.4773 -445.4773
838 509.6807 -370.3047
839 561.3341 -286.0140
840 599.1656 -194.6807
841 622.2437 -98.5537
842 660.0000 0.0000
843 651.8743 103.2467
844 627.6973 203.9512
845 588.0643 299.6337
846 533.9512 387.9383
847 466.6905 466.6905
848 387.9383 533.9512
849 299.6337 588.0643
850 203.9512 627.6973
851 103.2467 651.8743
852 0.0000 660.0000
853 -103.2467 651.8743
854 -203.9512 627.6973
855 -299.6337 588.0643
856 -387.9383 533.9512
857 -466.6905 466.6905
858 -533.9512 387.9383
859 -588.0643 299.6337
860 -627.6973 203.9512
861 -651.8743 103.2467
862 -660.0000 0.0000
863 -651.8743 -103.2467
864 -627.6973 -203.9512
865 -588.0643 -299.6337
866 -533.9512 -387.9383
867 -466.6905 -466.6905
868 -387.9383 -533.9512
869 -299.6337 -588.0643
870 -203.9512 -627.6973
871 -103.2467 -651.8743
872 -0.0000 -660.0000
873 103.2467 -651.8743
874 203.9512 -627.6973
875 299.6337 -588.0643
876 387.9383 -533.9512
877 466.6905 -466.6905
878 533.9512 -387.9383
879 588.0643 -299.6337
880 627.6973 -203.9512
881 651.8743 -103.2467
882 690.0000 0.0000
883 681.5050 107.9398
884 656.2290 213.2217
885 614.7945 313.2534
886 558.2217 405.5718
887 487.9037 487.9037
888 405.5718 558.2217
889 313.2534 614.7945
890 213.2217 656.2290
891 107.9398 681.5050
892 0.0000 690.0000
893 -107.9398 681.5050
894 -213.2217 656.2290
895 -313.2534 614.7945
896 -405.5718 558.2217
897 -487.9037 487.9037
898 -558.2217 405.5718
899 -614.7945 313.2534
900 -656.2290 213.2217
901 -681.5050 107.9398
902 -690.0000 0.0000
903 -681.5050 -107.9398
904 -656.2290 -213.2217
905 -614.7945 -313.2534
906 -558.2217 -405.5718
907 -487.9037 -487.9037
908 -405.5718 -558.2217
909 -313.2534 -614.7945
910 -213.2217 -656.2290
911 -107.9398 -681.5050
912 -0.0000 -690.0000
913 107.9398 -681.5050
914 213.2217 -656.2290
915 313.2534 -614.7945
916 405.5718 -558.2217
917 487.9037 -487.9037
918 558.2217 -405.5718
919 614.7945 -313.2534
920 656.2290 -213.2217
921 681.5050 -107.9398
922 720.0000 0.0000
923 711.1356 112.6328
924 684.7607 222.4922
925 641.5247 326.8732
926 582.4922 423.2054
927 509.1169 509.1169
928 423.2054 582.4922
929 326.8732 641.5247
930 222.4922 684.7607
931 112.6328 711.1356
932 0.0000 720.0000
933 -112.6328 711.1356
934 -222.4922 684.7607
935 -326.8732 641.5247
936 -423.2054 582.4922
937 -509.1169 509.1169
938 -582.4922 423.2054
939 -641.5247 326.8732
940 -684.7607 222.4922
941 -711.1356 112.6328
942 -720.0000 0.0000
943 -711.1356 -112.6328
944 -684.7607 -222.4922
945 -641.5247 -326.8732
946 -582.4922 -423.2054
947 -509.1169 -509.1169
948 -423.2054 -582.4922
949 -326.8732 -641.5247
950 -222.4922 -684.7607
951 -112.6328 -711.1356
952 -0.0000 -720.0000
953 112.6328 -711.1356
954 222.4922 -684.7607
955 326.8732 -641.5247
956 423.2054 -582.4922
957 509.1169 -509.1169
958 582.4922 -423.2054
959 641.5247 -326.8732
960 684.7607 -222.4922
961 711.1356 -112.6328
962 750.0000 0.0000
963 740.7663 117.3258
964 713.2924 231.7627
965 668.2549 340.4929
966 606.7627 440.8389
967 530.3301 530.3301
968 440.8389 606.7627
969 340.4929 668.2549
970 231.7627 713.2924
971 117.3258 740.7663
972 0.0000 750.0000
973 -117.3258 740.7663
974 -231.7627 713.2924
975 -340.4929 668.2549
976 -440.8389 606.7627
977 -530.3301 530.3301
978 -606.7627 440.8389
979 -668.2549 340.4929
980 -713.2924 231.7627
981 -740.7663 117.3258
982 -750.0000 0.0000
983 -740.7663 -117.3258
984 -713.2924 -231.7627
985 -668.2549 -340.4929
986 -606.7627 -440.8389
987 -530.3301 -530.3301
988 -440.8389 -606.7627
989 -340.4929 -668.2549
990 -231.7627 -713.2924
991 -117.3258 -740.7663
992 -0.0000 -750.0000
993 117.3258 -740.7663
994 231.7627 -713.2924
995 340.4929 -668.2549
996 440.8389 -606.7627
997 530.3301 -530.3301
998 606.7627 -440.8389
999 668.2549 -340.4929
1000 713.2924 -231.7627
1001 740.7663 -117.3258
1002 780.0000 0.0000
1003 770.3969 122.0189
1004 741.8241 241.0333
1005 694.9851 354.1126
1006 631.0333 458.4725
1007 551.5433 551.5433
1008 458.4725 631.0333
1009 354.1126 694.9851
1010 241.0333 741.8241
1011 122.0189 770.3969
1012 0.0000 780.0000
1013 -122.0189 770.3969
1014 -241.0333 741.8241
1015 -354.1126 694.9851
1016 -458.4725 631.0333
1017 -551.5433 551.5433
1018 -631.0333 458.4725
1019 -694.9851 354.1126
1020 -741.8241 241.0333
1021 -770.3969 122.0189
1022 -780.0000 0.0000
1023 -770.3969 -122.0189
1024 -741.8241 -241.0333
1025 -694.9851 -354.1126
1026 -631.0333 -458.4725
1027 -551.5433 -551.5433
1028 -458.4725 -631.0333
1029 -354.1126 -694.9851
1030 -241.0333 -741.8241
1031 -122.0189 -770.3969
1032 -0.0000 -780.0000
1033 122.0189 -770.3969
1034 241.0333 -741.8241
1035 354.1126 -694.9851
1036 458.4725 -631.0333
1037 551.5433 -551.5433
1038 631.0333 -458.4725
1039 694.9851 -354.1126
1040 741.8241 -241.0333
1041 770.3969 -122.0189
1042 810.0000 0.0000
1043 800.0276 126.7119
1044 770.3558 250.3038
1045 721.7153 367.7323
1046 655.3038 476.1061
1047 572.7565 572.7565
1048 476.1061 655.3038
1049 367.7323 721.7153
1050 250.3038 770.3558
1051 126.7119 800.0276
1052 0.0000 810.0000
1053 -126.7119 800.0276
1054 -250.3038 770.3558
1055 -367.7323 721.7153
1056 -476.1061 655.3038
1057 -572.7565 572.7565
1058 -655.3038 476.1061
1059 -721.7153 367.7323
1060 -770.3558 250.3038
1061 -800.0276 126.7119
1062 -810.0000 0.0000
1063 -800.0276 -126.7119
1064 -770.3558 -250.3038
1065 -721.7153 -367.7323
1066 -655.3038 -476.1061
1067 -572.7565 -572.7565
1068 -476.1061 -655.3038
1069 -367.7323 -721.7153
1070 -250.3038 -770.3558
1071 -126.7119 -800.0276
1072 -0.0000 -810.0000
1073 126.7119 -800.0276
1074 250.3038 -770.3558
1075 367.7323 -721.7153
1076 476.1061 -655.3038
1077 572.7565 -572.7565
1078 655.3038 -476.1061
1079 721.7153 -367.7323
1080 770.3558 -250.3038
1081 800.0276 -126.7119
1082 840.0000 0.0000
1083 829.6582 131.4050
1084 798.8875 259.5743
1085 748.4455 381.3520
1086 679.5743 493.7396
1087 593.9697 593.9697
1088 493.7396 679.5743
1089 381.3520 748.4455
1090 259.5743 798.8875
1091 131.4050 829.6582
1092 0.0000 840.0000
1093 -131.4050 829.6582
1094 -259.5743 798.8875
1095 -381.3520 748.4455
1096 -493.7396 679.5743
1097 -593.9697 593.9697
1098 -679.5743 493.7396
1099 -748.4455 381.3520
1100 -798.8875 259.5743
1101 -829.6582 131.4050
1102 -840.0000 0.0000
1103 -829.6582 -131.4050
1104 -798.8875 -259.5743
1105 -748.4455 -381.3520
1106 -679.5743 -493.7396
1107 -593.9697 -593.9697
1108 -493.7396 -679.5743
1109 -381.3520 -748.4455
1110 -259.5743 -798.8875
1111 -131.4050 -829.6582
1112 -0.0000 -840.0000
1113 131.4050 -829.6582
1114 259.5743 -798.8875
1115 381.3520 -748.4455
1116 493.7396 -679.5743
1117 593.9697 -593.9697
1118 679.5743 -493.7396
1119 748.4455 -381.3520
1120 798.8875 -259.5743
1121 829.6582 -131.4050
DEMAND&PROFITS_SECTION
1 0 0
2 10 12
3 30 41
4 30 40
5 10 13
6 10 14
7 30 24
8 30 32
9 10 13
10 10 12
11 30 39
12 30 28
13 10 15
14 10 7
15 30 35
16 30 28
17 10 13
18 10 13
19 30 33
20 30 33
21 10 6
22 10 9
23 30 22
24 30 39
25 10 5
26 10 14
27 30 20
28 30 29
29 10 7
30 10 8
31 30 31
32 30 16
33 10 12
34 10 10
35 30 38
36 30 17
37 10 11
38 10 7
39 30 18
40 30 20
41 10 8
42 10 13
43 30 36
44 30 35
45 10 14
46 10 11
47 30 38
48 30 44
49 10 7
50 10 14
51 30 36
52 30 16
53 10 7
54 10 8
55 30 18
56 30 17
57 10 15
58 10 8
59 30 24
60 30 22
61 10 13
62 10 11
63 30 15
64 30 16
65 10 9
66 10 6
67 30 15
68 30 42
69 10 15
70 10 7
71 30 23
72 30 18
73 10 10
74 10 8
75 30 36
76 30 27
77 10 14
78 10 11
79 30 40
80 30 22
81 10 7
82 10 12
83 30 18
84 30 39
85 10 10
86 10 13
87 30 29
88 30 22
89 10 10
90 10 6
91 30 27
92 30 25
93 10 12
94 10 11
95 30 42
96 30 33
97 10 7
98 10 8
99 30 23
100 30 37
101 10 10
102 10 12
103 30 21
104 30 31
105 10 6
106 10 9
107 30 35
108 30 40
109 10 11
110 10 14
111 30 17
112 30 36
113 10 10
114 10 10
115 30 41
116 30 37
117 10 8
118 10 6
119 30 42
120 30 24
121 10 13
122 10 15
123 30 19
124 30 16
125 10 12
126 10 8
127 30 30
128 30 33
129 10 7
130 10 8
131 30 22
132 30 22
133 10 7
134 10 13
135 30 26
136 30 25
137 10 13
138 10 6
139 30 23
140 30 25
141 10 14
142 10 9
143 30 29
144 30 33
145 10 6
146 10 9
147 30 31
148 30 43
149 10 13
150 10 14
151 30 25
152 30 27
153 10 14
154 10 6
155 30 25
156 30 38
157 10 5
158 10 11
159 30 25
160 30 44
161 10 10
162 10 14
163 30 33
164 30 36
165 10 14
166 10 5
167 30 17
168 30 45
169 10 15
170 10 7
171 30 30
172 30 36
173 10 8
174 10 7
175 30 18
176 30 35
177 10 10
178 10 6
179 30 20
180 30 21
181 10 12
182 10 7
183 30 25
184 30 33
185 10 7
186 10 11
187 30 32
188 30 24
189 10 8
190 10 10
191 30 26
192 30 37
193 10 9
194 10 13
195 30 26
196 30 25
197 10 7
198 10 11
199 30 19
200 30 41
201 10 10
202 10 8
203 30 25
204 30 42
205 10 7
206 10 6
207 30 31
208 30 20
209 10 9
210 10 11
211 30 44
212 30 30
213 10 8
214 10 14
215 30 25
216 30 25
217 10 10
218 10 8
219 30 25
220 30 19
221 10 7
222 10 10
223 30 30
224 30 38
225 10 6
226 10 15
227 30 34
228 30 19
229 10 10
230 10 5
231 30 17
232 30 42
233 10 11
234 10 6
235 30 30
236 30 41
237 10 13
238 10 8
239 30 28
240 30 30
241 10 14
242 10 8
243 30 32
244 30 17
245 10 9
246 10 14
247 30 21
248 30 19
249 10 11
250 10 11
251 30 34
252 30 30
253 10 12
254 10 15
255 30 25
256 30 37
257 10 11
258 10 10
259 30 15
260 30 41
261 10 15
262 10 8
263 30 23
264 30 41
265 10 5
266 10 9
267 30 31
268 30 27
269 10 13
270 10 6
271 30 26
272 30 25
273 10 7
274 10 15
275 30 21
276 30 37
277 10 8
278 10 12
279 30 25
280 30 15
281 10 14
282 10 10
283 30 17
284 30 34
285 10 7
286 10 6
287 30 41
288 30 20
289 10 7
290 10 10
291 30 43
292 30 17
293 10 7
294 10 10
295 30 17
296 30 27
297 10 8
298 10 15
299 30 19
300 30 25
301 10 6
302 10 15
303 30 39
304 30 43
305 10 10
306 10 5
307 30 19
308 30 29
309 10 14
310 10 14
311 30 23
312 30 44
313 10 6
314 10 7
315 30 32
316 30 17
317 10 10
318 10 11
319 30 44
320 30 23
321 10 8
322 10 14
323 30 22
324 30 32
325 10 13
326 10 11
327 30 38
328 30 28
329 10 13
330 10 9
331 30 23
332 30 40
333 10 11
334 10 11
335 30 29
336 30 29
337 10 5
338 10 9
339 30 28
340 30 30
341 10 6
342 10 13
343 30 45
344 30 16
345 10 6
346 10 10
347 30 36
348 30 19
349 10 13
350 10 15
351 30 33
352 30 34
353 10 12
354 10 7
355 30 25
356 30 31
357 10 11
358 10 13
359 30 28
360 30 16
361 10 12
362 10 10
363 30 31
364 30 39
365 10 7
366 10 12
367 30 30
368 30 21
369 10 7
370 10 6
371 30 39
372 30 44
373 10 11
374 10 14
375 30 31
376 30 38
377 10 8
378 10 15
379 30 38
380 30 39
381 10 10
382 10 8
383 30 33
384 30 35
385 10 8
386 10 8
387 30 44
388 30 44
389 10 14
390 10 10
391 30 36
392 30 29
393 10 9
394 10 11
395 30 31
396 30 30
397 10 12
398 10 5
399 30 40
400 30 29
401 10 5
402 10 11
403 30 38
404 30 39
405 10 12
406 10 9
407 30 34
408 30 19
409 10 11
410 10 10
411 30 32
412 30 34
413 10 13
414 10 12
415 30 34
416 30 43
417 10 7
418 10 11
419 30 36
420 30 36
421 10 12
422 10 14
423 30 27
424 30 26
425 10 9
426 10 8
427 30 37
428 30 15
429 10 15
430 10 12
431 30 24
432 30 25
433 10 5
434 10 7
435 30 19
436 30 30
437 10 8
438 10 8
439 30 36
440 30 38
441 10 13
442 10 11
443 30 19
444 30 24
445 10 12
446 10 10
447 30 32
448 30 32
449 10 15
450 10 6
451 30 39
452 30 20
453 10 9
454 10 11
455 30 22
456 30 36
457 10 8
458 10 9
459 30 41
460 30 27
461 10 6
462 10 11
463 30 44
464 30 28
465 10 9
466 10 12
467 30 16
468 30 44
469 10 14
470 10 9
471 30 20
472 30 44
473 10 13
474 10 11
475 30 34
476 30 32
477 10 15
478 10 10
479 30 43
480 30 29
481 10 6
482 10 8
483 30 42
484 30 21
485 10 11
486 10 9
487 30 18
488 30 43
489 10 10
490 10 12
491 30 28
492 30 27
493 10 10
494 10 14
495 30 16
496 30 18
497 10 13
498 10 8
499 30 20
500 30 19
501 10 6
502 10 6
503 30 34
504 30 29
505 10 13
506 10 11
507 30 27
508 30 19
509 10 13
510 10 8
511 30 41
512 30 18
513 10 12
514 10 6
515 30 23
516 30 40
517 10 8
518 10 8
519 30 44
520 30 43
521 10 12
522 10 8
523 30 19
524 30 37
525 10 13
526 10 11
527 30 26
528 30 19
529 10 7
530 10 14
531 30 35
532 30 32
533 10 7
534 10 9
535 30 36
536 30 30
537 10 11
538 10 8
539 30 45
540 30 36
541 10 6
542 10 13
543 30 16
544 30 22
545 10 7
546 10 5
547 30 38
548 30 44
549 10 13
550 10 13
551 30 31
552 30 37
553 10 10
554 10 10
555 30 17
556 30 16
557 10 10
558 10 7
559 30 43
560 30 19
561 10 7
562 10 6
563 30 40
564 30 28
565 10 11
566 10 6
567 30 35
568 30 40
569 10 9
570 10 12
571 30 41
572 30 23
573 10 9
574 10 8
575 30 20
576 30 34
577 10 11
578 10 6
579 30 35
580 30 25
581 10 8
582 10 8
583 30 26
584 30 34
585 10 11
586 10 6
587 30 19
588 30 23
589 10 9
590 10 6
591 30 42
592 30 30
593 10 14
594 10 11
595 30 30
596 30 17
597 10 6
598 10 10
599 30 40
600 30 27
601 10 11
602 10 14
603 30 37
604 30 44
605 10 11
606 10 12
607 30 21
608 30 23
609 10 6
610 10 15
611 30 22
612 30 17
613 10 8
614 10 6
615 30 36
616 30 23
617 10 14
618 10 6
619 30 20
620 30 39
621 10 11
622 10 12
623 30 36
624 30 40
625 10 12
626 10 11
627 30 34
628 30 19
629 10 6
630 10 7
631 30 16
632 30 35
633 10 13
634 10 5
635 30 33
636 30 23
637 10 14
638 10 7
639 30 31
640 30 30
641 10 5
642 10 8
643 30 32
644 30 17
645 10 7
646 10 6
647 30 26
648 30 28
649 10 6
650 10 6
651 30 42
652 30 39
653 10 7
654 10 9
655 30 30
656 30 23
657 10 15
658 10 12
659 30 34
660 30 44
661 10 11
662 10 7
663 30 22
664 30 24
665 10 13
666 10 5
667 30 23
668 30 22
669 10 11
670 10 6
671 30 44
672 30 30
673 10 6
674 10 12
675 30 29
676 30 25
677 10 12
678 10 14
679 30 25
680 30 35
681 10 6
682 10 14
683 30 22
684 30 41
685 10 13
686 10 7
687 30 18
688 30 43
689 10 7
690 10 9
691 30 27
692 30 33
693 10 5
694 10 7
695 30 24
696 30 37
697 10 6
698 10 14
699 30 37
700 30 18
701 10 15
702 10 8
703 30 19
704 30 34
705 10 14
706 10 10
707 30 17
708 30 43
709 10 14
710 10 8
711 30 32
712 30 27
713 10 10
714 10 15
715 30 38
716 30 23
717 10 8
718 10 13
719 30 16
720 30 42
721 10 11
722 10 15
723 30 41
724 30 43
725 10 12
726 10 6
727 30 18
728 30 26
729 10 7
730 10 9
731 30 22
732 30 16
733 10 7
734 10 6
735 30 38
736 30 32
737 10 8
738 10 6
739 30 35
740 30 39
741 10 10
742 10 10
743 30 33
744 30 43
745 10 12
746 10 10
747 30 25
748 30 38
749 10 9
750 10 10
751 30 41
752 30 38
753 10 10
754 10 14
755 30 31
756 30 33
757 10 8
758 10 13
759 30 36
760 30 36
761 10 11
762 10 7
763 30 45
764 30 44
765 10 10
766 10 12
767 30 40
768 30 42
769 10 11
770 10 7
771 30 34
772 30 23
773 10 14
774 10 11
775 30 33
776 30 26
777 10 15
778 10 7
779 30 39
780 30 41
781 10 5
782 10 14
783 30 21
784 30 41
785 10 9
786 10 13
787 30 37
788 30 37
789 10 10
790 10 7
791 30 18
792 30 40
793 10 8
794 10 7
795 30 41
796 30 30
797 10 14
798 10 12
799 30 19
800 30 36
801 10 11
802 10 13
803 30 27
804 30 37
805 10 14
806 10 10
807 30 26
808 30 44
809 10 8
810 10 14
811 30 43
812 30 30
813 10 8
814 10 13
815 30 15
816 30 25
817 10 6
818 10 10
819 30 19
820 30 17
821 10 9
822 10 8
823 30 37
824 30 28
825 10 10
826 10 8
827 30 29
828 30 34
829 10 13
830 10 10
831 30 19
832 30 41
833 10 13
834 10 11
835 30 19
836 30 31
837 10 13
838 10 13
839 30 23
840 30 36
841 10 12
842 10 11
843 30 15
844 30 21
845 10 11
846 10 12
847 30 37
848 30 31
849 10 8
850 10 15
851 30 30
852 30 19
853 10 14
854 10 12
855 30 41
856 30 23
857 10 12
858 10 6
859 30 45
860 30 29
861 10 6
862 10 6
863 30 20
864 30 22
865 10 9
866 10 11
867 30 35
868 30 32
869 10 8
870 10 12
871 30 43
872 30 18
873 10 7
874 10 13
875 30 34
876 30 41
877 10 12
878 10 13
879 30 42
880 30 38
881 10 14
882 10 11
883 30 19
884 30 21
885 10 8
886 10 14
887 30 21
888 30 27
889 10 11
890 10 6
891 30 35
892 30 39
893 10 10
894 10 7
895 30 27
896 30 29
897 10 6
898 10 6
899 30 31
900 30 44
901 10 15
902 10 12
903 30 39
904 30 28
905 10 10
906 10 11
907 30 23
908 30 26
909 10 13
910 10 8
911 30 40
912 30 40
913 10 10
914 10 7
915 30 44
916 30 17
917 10 9
918 10 14
919 30 36
920 30 37
921 10 10
922 10 8
923 30 22
924 30 26
925 10 13
926 10 7
927 30 24
928 30 34
929 10 11
930 10 11
931 30 22
932 30 44
933 10 7
934 10 11
935 30 34
936 30 38
937 10 10
938 10 14
939 30 44
940 30 42
941 10 7
942 10 11
943 30 39
944 30 20
945 10 11
946 10 8
947 30 40
948 30 21
949 10 12
950 10 9
951 30 36
952 30 33
953 10 11
954 10 13
955 30 34
956 30 36
957 10 14
958 10 5
959 30 30
960 30 40
961 10 12
962 10 12
963 30 40
964 30 35
965 10 11
966 10 13
967 30 35
968 30 21
969 10 10
970 10 13
971 30 27
972 30 45
973 10 15
974 10 6
975 30 26
976 30 30
977 10 7
978 10 7
979 30 23
980 30 39
981 10 12
982 10 13
983 30 18
984 30 38
985 10 9
986 10 11
987 30 30
988 30 41
989 10 9
990 10 13
991 30 26
992 30 34
993 10 11
994 10 14
995 30 25
996 30 44
997 10 12
998 10 7
999 30 40
1000 30 23
1001 10 9
1002 10 9
1003 30 18
1004 30 18
1005 10 7
1006 10 8
1007 30 18
1008 30 25
1009 10 9
1010 10 11
1011 30 30
1012 30 36
1013 10 14
1014 10 12
1015 30 29
1016 30 16
1017 10 8
1018 10 14
1019 30 23
1020 30 18
1021 10 9
1022 10 7
1023 30 19
1024 30 41
1025 10 9
1026 10 5
1027 30 25
1028 30 20
1029 10 8
1030 10 10
1031 30 25
1032 30 30
1033 10 12
1034 10 7
1035 30 37
1036 30 44
1037 10 14
1038 10 8
1039 30 38
1040 30 19
1041 10 6
1042 10 7
1043 30 22
1044 30 38
1045 10 8
1046 10 8
1047 30 38
1048 30 42
1049 10 7
1050 10 6
1051 30 27
1052 30 33
1053 10 5
1054 10 14
1055 30 38
1056 30 24
1057 10 6
1058 10 11
1059 30 33
1060 30 45
1061 10 8
1062 10 12
1063 30 23
1064 30 26
1065 10 14
1066 10 14
1067 30 17
1068 30 22
1069 10 11
1070 10 6
1071 30 38
1072 30 34
1073 10 9
1074 10 11
1075 30 30
1076 30 42
1077 10 5
1078 10 12
1079 30 18
1080 30 37
1081 10 10
1082 10 11
1083 30 17
1084 30 33
1085 10 10
1086 10 8
1087 30 33
1088 30 23
1089 10 12
1090 10 11
1091 30 27
1092 30 20
1093 10 12
1094 10 15
1095 30 39
1096 30 45
1097 10 9
1098 10 11
1099 30 26
1100 30 22
1101 10 10
1102 10 14
1103 30 30
1104 30 29
1105 10 15
1106 10 8
1107 30 30
1108 30 32
1109 10 10
1110 10 14
1111 30 32
1112 30 23
1113 10 9
1114 10 13
1115 30 44
1116 30 24
1117 10 9
1118 10 15
1119 30 17
1120 30 34
1121 10 8
DEPOT_SECTION
1
-1
EOF
